instances/t2ex.in
P 5 7
A 0 1 4
A 1 3 7
A 2 0 5
A 2 1 6
A 2 4 9
A 3 2 8
A 4 3 10
T