instances/t2ex.out
C 24.000
V 2 1 1.000
V 3 2 1.000
V 4 3 1.000
P 4 3 2 1
